sat
(:binary-propagations  933
 :decisions            981
 :del-clause           156
 :final-checks         7
 :max-generation       1
 :max-memory           25.68
 :memory               21.88
 :mk-bool-var          1348
 :mk-clause            264
 :mk-clause-binary     986
 :num-allocs           38630337
 :num-checks           1
 :propagations         1053
 :quant-instantiations 162
 :restarts             6
 :rlimit-count         453795
 :time                 0.10)
